opti conv property full nosymm phon
cell
   8.87287376   9.43250131   8.56576107  90.00000000  90.00000000  90.00000000
fractional  1
Tc    core  0.629539121  0.236189320  0.082344198  3.0000000  1.0000  0.000000
Mn    core  0.835958741  0.992919324  0.916792920  4.0000000  1.0000  0.000000
Mn    core  0.623630046  0.752214598  0.082953829  4.0000000  1.0000  0.000000
Mn    core  0.332805181  0.756110276  0.916968772  4.0000000  1.0000  0.000000
Mn    core  0.831194352  0.999405949  0.584096208  4.0000000  1.0000  0.000000
Mn    core  0.120777329  0.508290893  0.750341674  4.0000000  1.0000  0.000000
Mn    core  0.622187273  0.748133895  0.417308661  4.0000000  1.0000  0.000000
Mn    core  0.330653894  0.259906919  0.583956729  4.0000000  1.0000  0.000000
Mn    core  0.620043440  0.249095199  0.416477510  4.0000000  1.0000  0.000000
Mn    core  0.835482877  0.992920748  0.250167177  4.0000000  1.0000  0.000000
Mn    core  0.121338238  0.006243171  0.418543908  4.0000000  1.0000  0.000000
Mn    core  0.619649119  0.250149500  0.750757387  4.0000000  1.0000  0.000000
Mn    core  0.831559472  0.497705900  0.915550033  4.0000000  1.0000  0.000000
Mn    core  0.622214230  0.747466356  0.749863225  4.0000000  1.0000  0.000000
Mn    core  0.330777459  0.259735403  0.917430167  4.0000000  1.0000  0.000000
Mn    core  0.121420589  0.507297117  0.417565256  4.0000000  1.0000  0.000000
Mn    core  0.833186945  0.499792095  0.252146807  4.0000000  1.0000  0.000000
Mn    core  0.332662542  0.756144081  0.583858655  4.0000000  1.0000  0.000000
Mn    core  0.327145257  0.250264406  0.251552212  4.0000000  1.0000  0.000000
Mn    core  0.122963029  0.004376880  0.083213287  4.0000000  1.0000  0.000000
Mn    core  0.329382321  0.759729439  0.250917672  4.0000000  1.0000  0.000000
Mn    core  0.123365972  0.007253773  0.749843293  4.0000000  1.0000  0.000000
Mn    core  0.121150603  0.503619313  0.083770531  4.0000000  1.0000  0.000000
Mn    core  0.831407499  0.497698910  0.583798340  4.0000000  1.0000  0.000000
Li    core  0.484965926  0.491282314  0.187364071  1.0000000  1.0000  0.000000
O     core  0.030552973  0.061134849  0.250534350 -2.0000000  1.0000  0.000000
O     core  0.400687961  0.332631145  0.088746020 -2.0000000  1.0000  0.000000
O     core  0.517935796  0.189213852  0.258226419 -2.0000000  1.0000  0.000000
O     core  0.921886979  0.440419430  0.084416860 -2.0000000  1.0000  0.000000
O     core  0.248783286  0.154469012  0.084751148 -2.0000000  1.0000  0.000000
O     core  0.201536211  0.408801488  0.253231913 -2.0000000  1.0000  0.000000
O     core  0.759424933  0.077835940  0.083945714 -2.0000000  1.0000  0.000000
O     core  0.700611806  0.359304264  0.267048484 -2.0000000  1.0000  0.000000
O     core  0.029081310  0.563946580  0.249206883 -2.0000000  1.0000  0.000000
O     core  0.425786407  0.812755144  0.085801633 -2.0000000  1.0000  0.000000
O     core  0.528123701  0.681659672  0.247639194 -2.0000000  1.0000  0.000000
O     core  0.931645569  0.932942969  0.084125246 -2.0000000  1.0000  0.000000
O     core  0.253974280  0.655338650  0.086140851 -2.0000000  1.0000  0.000000
O     core  0.205528621  0.907812387  0.251414726 -2.0000000  1.0000  0.000000
O     core  0.744806531  0.595749211  0.085482991 -2.0000000  1.0000  0.000000
O     core  0.703385921  0.843170858  0.250708230 -2.0000000  1.0000  0.000000
O     core  0.028720949  0.062720781  0.583958495 -2.0000000  1.0000  0.000000
O     core  0.419600376  0.319535647  0.415075851 -2.0000000  1.0000  0.000000
O     core  0.526716851  0.194833770  0.582883806 -2.0000000  1.0000  0.000000
O     core  0.926883334  0.443960884  0.417999973 -2.0000000  1.0000  0.000000
O     core  0.247155061  0.157035049  0.418420207 -2.0000000  1.0000  0.000000
O     core  0.203237540  0.410338024  0.583384615 -2.0000000  1.0000  0.000000
O     core  0.749416875  0.095749133  0.415045885 -2.0000000  1.0000  0.000000
O     core  0.704332558  0.346714506  0.582624364 -2.0000000  1.0000  0.000000
O     core  0.029948395  0.566153137  0.583249374 -2.0000000  1.0000  0.000000
O     core  0.426801740  0.811263930  0.414918848 -2.0000000  1.0000  0.000000
O     core  0.528575984  0.691670371  0.582955808 -2.0000000  1.0000  0.000000
O     core  0.925177062  0.940386288  0.418021217 -2.0000000  1.0000  0.000000
O     core  0.250712073  0.659177908  0.415510250 -2.0000000  1.0000  0.000000
O     core  0.206261741  0.907696537  0.582994478 -2.0000000  1.0000  0.000000
O     core  0.749142616  0.599407666  0.417449066 -2.0000000  1.0000  0.000000
O     core  0.703443194  0.847344745  0.583149688 -2.0000000  1.0000  0.000000
O     core  0.030314033  0.060462188  0.917016616 -2.0000000  1.0000  0.000000
O     core  0.420957535  0.318861490  0.749266107 -2.0000000  1.0000  0.000000
O     core  0.517029642  0.191627166  0.909808591 -2.0000000  1.0000  0.000000
O     core  0.927306058  0.444867593  0.748976593 -2.0000000  1.0000  0.000000
O     core  0.247241813  0.159233520  0.749153034 -2.0000000  1.0000  0.000000
O     core  0.200206560  0.409250008  0.915247901 -2.0000000  1.0000  0.000000
O     core  0.748693757  0.094706768  0.750908695 -2.0000000  1.0000  0.000000
O     core  0.708247219  0.352450886  0.899202017 -2.0000000  1.0000  0.000000
O     core  0.028336778  0.563931499  0.919194715 -2.0000000  1.0000  0.000000
O     core  0.426037495  0.811466299  0.750562374 -2.0000000  1.0000  0.000000
O     core  0.529087138  0.691675331  0.919159013 -2.0000000  1.0000  0.000000
O     core  0.926289681  0.940662732  0.749141371 -2.0000000  1.0000  0.000000
O     core  0.249780618  0.659068101  0.751080177 -2.0000000  1.0000  0.000000
O     core  0.206505331  0.906228251  0.917483798 -2.0000000  1.0000  0.000000
O     core  0.749284613  0.598768460  0.749079758 -2.0000000  1.0000  0.000000
O     core  0.705902101  0.844040902  0.916684875 -2.0000000  1.0000  0.000000
species
Tc core 1.971
Tc shel 1.029
Mn core 4                  
O core 0.513000                  
O shel -2.513000
Li    core    1                  
buck    
Mn   core O     shel  3087.82600     0.264200  0.000000      0.00 25.00
Li core O shel   479.837 0.3000  0.00 0.0 25.0
Tc shel O shel  1686.125 0.2962  0.00 0.0 25.0    
O     shel O     shel  22.4100000     0.693700  32.32000      0.00 25.00
lennard 16 6
O  shel O shel              100     0 0.0 25.0
spring
O      20.530000
Tc     148.00000
accuracy 10.000  4 **  8.000
xtol opt   8.000000
gtol opt   8.000000
ftol opt   8.000000
maxcyc opt  1000000
#dump every     10 gulp.res
#output cif cryst.cif
