opti conp gfnff gwolf comp prop phon noden
cell
25.8556 25.8556 25.8556 90 90 90
frac
Zn core 0.293477 0.293477 0.293477
C  core 0.111460 0.250000 0.250000
C  core 0.053860 0.250000 0.250000
C  core 0.217510 0.217510 0.473430
O  core 0.250000 0.250000 0.250000
O  core 0.219370 0.219370 0.366110
H  core 0.195600 0.195600 0.455200
space
F M -3 M
nobond Zn Zn
