sync conj nomod
scell
5.944108 5.944108 90.0
sfrac
Al    core 0.0000000 0.0000000 0.0000000 2.00000000 1.00000 0.00000 0 0 0
O     core 0.2661942 0.0248762 0.0000000 -2.0000000 1.00000 0.00000 1 1 0
Mg    core 0.5000000 0.0038019 0.0000000 4.00000000 1.00000 0.00000 1 1 0
O     core 0.7338057 0.0248762 0.0000000 -2.0000000 1.00000 0.00000 1 1 0
O     core 0.5000000 0.2601737 0.0000000 -2.0000000 1.00000 0.00000 1 1 0
Mg    core 0.0000000 0.5285142 0.0000000 4.00000000 1.00000 0.00000 1 1 0
O     core 0.2284892 0.4721350 0.0000000 -2.0000000 1.00000 0.00000 1 1 0
O     core 0.0000000 0.7431457 0.0000000 -2.0000000 1.00000 0.00000 1 1 0
Mg    core 0.5000000 0.4916824 0.0000000 4.00000000 1.00000 0.00000 1 1 0
O     core 0.7715107 0.4721350 0.0000000 -2.0000000 1.00000 0.00000 1 1 0
O     core 0.5000000 0.7336919 0.0000000 -2.0000000 1.00000 0.00000 1 1 0
#
#  Nudged elastic band data
#
fcell
5.944108 5.944108 90.0
ffrac
Al    core 0.0000000 0.0000000 0.0000000 
O     core 0.0248764 0.2661943 0.0000000 
Mg    core 0.5285141 0.0000000 0.0000000 
O     core 0.7431459 0.0000000 0.0000000 
O     core 0.4721351 0.2284891 0.0000000 
Mg    core 0.0038022 0.5000000 0.0000000 
O     core 0.2601741 0.5000000 0.0000000 
O     core 0.0248764 0.7338057 0.0000000 
Mg    core 0.4916827 0.5000000 0.0000000 
O     core 0.7336920 0.5000000 0.0000000 
O     core 0.4721352 0.7715106 0.0000000 
nebreplica  2
buck
Mg core O core 1200.0 0.3 0.0 0.0 12.0
Al core O core  800.0 0.3 0.0 0.0 12.0
dump example79.res                                                    
