opti conp gfnff prop phon noden gwolf optlower rfo
scell
   3.68679338   3.68679338 120.00000000
sfrac
S     core  2/3          1/3          8.319467754
Hf    core  0.000000000 -0.000000000  7.075693700
S     core  1/3          2/3          5.836999999
S     core  1/3          2/3          2.404944993
Hf    core  0.000000000 -0.000000000  1.166251293
S     core  2/3          1/3         -0.077522761
dump every example82.res
